2
4
40
1 1.3 1.55 1.75 2.1
20 44 9 29 43 43 47 28 40 39 25 8 32 41 46 35 20 39 27 38 33 16 16 29 17 23 18 9 38 18 33 42 26 43 23 26 46 42 7 6 33 32 18 27 43 14 28 6 12 8 47 7 49 17 49 26 14 45 7 23 28 9 48 8 28 20 45 12 28 42 32 29 43 7 6 8 17 25 6 44 44 41 40 21 30 28 6 42 41 14 48 30 46 22 34 28 21 48 8 43 38 30 43 20 44 20 20 33 46 16 30 49 17 14 44 38 6 14 17 20 42 9 14 14 47 43 7 16 26 42 48 22 30 24 46 20 28 13 15 10 33 15 34 35 25 9 26 14 23 27 26 35 40 25 45 13 45 11 43 20 